p cnf 336 84
-10 -11 18 0
10 11 18 0
10 -11 -18 0
-10 11 -18 0
-18 -5 1 0
18 5 1 0
18 -5 -1 0
-18 5 -1 0
-10 22 0
-11 22 0
10 11 -22 0
-10 26 0
-5 26 0
10 5 -26 0
-11 30 0
-5 30 0
11 5 -30 0
-22 6 0
-26 6 0
-30 6 0
22 26 30 -6 0
-12 -13 19 0
12 13 19 0
12 -13 -19 0
-12 13 -19 0
-19 -6 2 0
19 6 2 0
19 -6 -2 0
-19 6 -2 0
-12 23 0
-13 23 0
12 13 -23 0
-12 27 0
-6 27 0
12 6 -27 0
-13 31 0
-6 31 0
13 6 -31 0
-23 7 0
-27 7 0
-31 7 0
23 27 31 -7 0
-14 -15 20 0
14 15 20 0
14 -15 -20 0
-14 15 -20 0
-20 -7 3 0
20 7 3 0
20 -7 -3 0
-20 7 -3 0
-14 24 0
-15 24 0
14 15 -24 0
-14 28 0
-7 28 0
14 7 -28 0
-15 32 0
-7 32 0
15 7 -32 0
-24 8 0
-28 8 0
-32 8 0
24 28 32 -8 0
-16 -17 21 0
16 17 21 0
16 -17 -21 0
-16 17 -21 0
-21 -8 4 0
21 8 4 0
21 -8 -4 0
-21 8 -4 0
-16 25 0
-17 25 0
16 17 -25 0
-16 29 0
-8 29 0
16 8 -29 0
-17 33 0
-8 33 0
17 8 -33 0
-25 9 0
-29 9 0
-33 9 0
25 29 33 -9 0
